p cnf 14 64
2 3 -14 0
2 -3 -11 0
-3 12 13 0
6 -10 -11 0
4 -7 12 0
-4 -8 10 0
2 7 12 0
-2 5 10 0
3 -4 -13 0
-6 7 -12 0
2 6 -14 0
-1 3 -14 0
-5 -11 -12 0
-3 -8 -14 0
-2 -9 -13 0
6 -12 -13 0
-2 6 -7 0
-3 -8 10 0
-3 -9 -14 0
-11 -12 -13 0
1 -10 13 0
-6 -7 -8 0
3 -5 -12 0
2 6 11 0
-2 7 -14 0
5 -7 9 0
2 11 -12 0
-2 -3 6 0
-5 -6 -13 0
-6 -8 -12 0
-1 -2 -12 0
3 6 11 0
3 -7 -8 0
-1 5 -14 0
4 6 -13 0
2 11 13 0
8 -10 13 0
-1 -7 8 0
-7 10 13 0
-7 8 -13 0
-1 -6 12 0
-1 -11 12 0
-7 8 -9 0
2 -3 -14 0
2 -7 14 0
-3 10 13 0
-8 11 -14 0
1 5 13 0
-1 -4 -12 0
5 12 -14 0
-2 10 -11 0
-2 -12 13 0
3 9 11 0
-5 8 -14 0
-10 13 14 0
-4 -7 12 0
-4 5 -11 0
3 5 -7 0
1 3 12 0
-3 -7 -9 0
2 -3 4 0
-3 -5 -12 0
3 4 -11 0
-3 6 -8 0
